
Gurobi 9.0.1 (linux64) logging started Thu Apr 30 20:14:52 2020

Gurobi Optimizer version 9.0.1 build v9.0.1rc0 (linux64)
Optimize a model with 32222 rows, 27380 columns and 603960 nonzeros
Model fingerprint: 0x28fc7e8f
Variable types: 0 continuous, 27380 integer (27342 binary)
Coefficient statistics:
  Matrix range     [1e+00, 2e+01]
  Objective range  [1e+00, 1e+02]
  Bounds range     [1e+00, 1e+00]
  RHS range        [1e+00, 1e+00]

User MIP start produced solution with objective 1140 (0.87s)
Loaded user MIP start with objective 1140

Presolve removed 14186 rows and 9391 columns (presolve time = 5s) ...
Presolve removed 14228 rows and 9451 columns (presolve time = 10s) ...
Presolve removed 14228 rows and 9451 columns
Presolve time: 10.03s
Presolved: 17994 rows, 17929 columns, 500980 nonzeros
Variable types: 0 continuous, 17929 integer (17893 binary)

Root simplex log...

Iteration    Objective       Primal Inf.    Dual Inf.      Time
       0    0.0000000e+00   1.940000e+02   0.000000e+00     13s
    1990    5.8166672e+02   1.960396e+03   0.000000e+00     15s
    3650    5.8844454e+02   1.107421e+04   0.000000e+00     20s
    5310    5.9422290e+02   4.258598e+04   0.000000e+00     25s
    6721    5.9993298e+02   8.145005e+04   0.000000e+00     30s
    8215    6.0504215e+02   2.079746e+04   0.000000e+00     35s
    9460    6.0860373e+02   3.718117e+03   0.000000e+00     40s
   10622    6.0946892e+02   3.332529e+04   0.000000e+00     45s
   11784    6.1038830e+02   1.045313e+04   0.000000e+00     50s
   12863    6.1152701e+02   1.973917e+03   0.000000e+00     55s
   14032    6.1415247e+02   1.151076e+05   0.000000e+00     60s
   15028    6.1497944e+02   5.100458e+03   0.000000e+00     65s
   16024    6.1618999e+02   2.728349e+04   0.000000e+00     70s
   17103    6.1741974e+02   1.283904e+04   0.000000e+00     75s
   18099    6.1855196e+02   2.391746e+03   0.000000e+00     80s
   19178    6.1943290e+02   3.407193e+03   0.000000e+00     85s
   20101    6.2020930e+02   1.794601e+03   0.000000e+00     90s
Warning: Markowitz tolerance tightened to 0.03125
   21025    6.2075671e+02   9.519353e+03   0.000000e+00     95s
   22104    6.2131809e+02   1.877401e+03   0.000000e+00    100s
   23105    6.2168375e+02   1.112210e+04   0.000000e+00    105s
   24037    6.2190355e+02   1.347469e+03   0.000000e+00    110s
   25081    6.2199065e+02   1.205870e+03   0.000000e+00    115s
   26051    6.2218668e+02   2.269398e+02   0.000000e+00    120s
   27130    6.2245435e+02   2.989990e+02   0.000000e+00    126s
   27864    6.2251884e+02   0.000000e+00   0.000000e+00    130s

Root relaxation: objective 6.225188e+02, 27864 iterations, 118.45 seconds
Total elapsed time = 130.12s

    Nodes    |    Current Node    |     Objective Bounds      |     Work
 Expl Unexpl |  Obj  Depth IntInf | Incumbent    BestBd   Gap | It/Node Time

     0     0  622.51884    0 1904 1140.00000  622.51884  45.4%     -  136s
     0     0  667.25195    0 1909 1140.00000  667.25195  41.5%     -  275s
     0     0  667.61340    0 1900 1140.00000  667.61340  41.4%     -  297s
     0     0  667.61524    0 1876 1140.00000  667.61524  41.4%     -  299s
     0     0  684.72212    0 1851 1140.00000  684.72212  39.9%     -  410s
     0     0  685.50385    0 1848 1140.00000  685.50385  39.9%     -  442s
     0     0  685.80597    0 1833 1140.00000  685.80597  39.8%     -  453s
     0     0  685.81078    0 1818 1140.00000  685.81078  39.8%     -  457s
     0     0  696.36345    0 1943 1140.00000  696.36345  38.9%     -  567s
     0     0  698.42062    0 1978 1140.00000  698.42062  38.7%     -  623s
     0     0  698.49590    0 1912 1140.00000  698.49590  38.7%     -  636s
     0     0  698.50569    0 1940 1140.00000  698.50569  38.7%     -  640s
     0     0  702.86712    0 2032 1140.00000  702.86712  38.3%     -  790s
     0     0  703.07421    0 1989 1140.00000  703.07421  38.3%     -  823s
     0     0  703.09639    0 1995 1140.00000  703.09639  38.3%     -  833s
     0     0  703.09828    0 2016 1140.00000  703.09828  38.3%     -  837s
     0     0  704.47512    0 1986 1140.00000  704.47512  38.2%     -  884s
     0     0  704.54342    0 1970 1140.00000  704.54342  38.2%     -  912s
     0     0  704.56499    0 1963 1140.00000  704.56499  38.2%     -  919s
     0     0  704.56904    0 1957 1140.00000  704.56904  38.2%     -  922s
     0     0  705.17168    0 1995 1140.00000  705.17168  38.1%     -  965s
     0     0  705.28773    0 2009 1140.00000  705.28773  38.1%     -  989s
     0     0  705.30363    0 1985 1140.00000  705.30363  38.1%     -  996s
     0     0  705.75695    0 1999 1140.00000  705.75695  38.1%     - 1030s
     0     0  705.86442    0 2003 1140.00000  705.86442  38.1%     - 1069s
     0     0  705.87691    0 2025 1140.00000  705.87691  38.1%     - 1075s
     0     0  706.18300    0 2033 1140.00000  706.18300  38.1%     - 1107s
     0     0  706.37279    0 2039 1140.00000  706.37279  38.0%     - 1127s
     0     0  706.39388    0 2053 1140.00000  706.39388  38.0%     - 1135s
     0     0  706.39898    0 2051 1140.00000  706.39898  38.0%     - 1139s
     0     0  706.50064    0 2020 1140.00000  706.50064  38.0%     - 1159s
     0     0  706.51398    0 2016 1140.00000  706.51398  38.0%     - 1167s
     0     0  706.77506    0 2009 1140.00000  706.77506  38.0%     - 1195s
     0     0  706.82027    0 2019 1140.00000  706.82027  38.0%     - 1210s
     0     0  706.84207    0 2029 1140.00000  706.84207  38.0%     - 1218s
     0     0  706.84440    0 2074 1140.00000  706.84440  38.0%     - 1221s
     0     0  706.97822    0 2053 1140.00000  706.97822  38.0%     - 1240s
     0     0  706.98509    0 2067 1140.00000  706.98509  38.0%     - 1247s
     0     0  707.22673    0 2083 1140.00000  707.22673  38.0%     - 1272s
     0     0  707.25060    0 2090 1140.00000  707.25060  38.0%     - 1284s
     0     0  707.25662    0 2083 1140.00000  707.25662  38.0%     - 1289s
     0     0  707.44927    0 2085 1140.00000  707.44927  37.9%     - 1318s
     0     0  707.47787    0 2095 1140.00000  707.47787  37.9%     - 1332s
     0     0  707.50961    0 2099 1140.00000  707.50961  37.9%     - 1344s
     0     0  707.51346    0 2102 1140.00000  707.51346  37.9%     - 1349s
     0     0  707.59916    0 2084 1140.00000  707.59916  37.9%     - 1368s
     0     0  707.61407    0 2106 1140.00000  707.61407  37.9%     - 1378s
     0     0  707.71554    0 2069 1140.00000  707.71554  37.9%     - 1399s
     0     0  707.71554    0 2065 1140.00000  707.71554  37.9%     - 1415s
     0     2  707.72871    0 2053 1140.00000  707.72871  37.9%     - 1666s
     1     3  709.45476    1 1999 1140.00000  707.72871  37.9%  7882 1723s
     2     4  711.76621    1 1853 1140.00000  709.45507  37.8% 11570 1837s
     3     5  712.28957    2 2022 1140.00000  709.45948  37.8% 11451 1919s
     4     6  716.87522    2 1879 1140.00000  711.76621  37.6% 18628 2193s
     5     7  713.65415    3 1995 1140.00000  711.76621  37.6% 17868 2291s
     6     8  722.26352    3 1948 1140.00000  711.76621  37.6% 18643 2445s
     7     9  713.68980    4 1962 1140.00000  711.76621  37.6% 16083 2450s
     8    10  727.43904    4 1801 1140.00000  711.76621  37.6% 20239 2770s
     9    11  714.31137    5 1980 1140.00000  711.76621  37.6% 18425 2797s
    10    12  740.34677    5 1780 1140.00000  711.76621  37.6% 19457 2964s
    11    13  714.50683    6 1994 1140.00000  711.76621  37.6% 18108 2993s
    12    14  730.08489    6 1695 1140.00000  711.76621  37.6% 19018 3176s
    13    15  714.62286    7 1988 1140.00000  711.76621  37.6% 17893 3202s
    14    16  732.63899    7 1570 1140.00000  711.76621  37.6% 18933 3397s
    15    17  714.70525    8 1996 1140.00000  711.76621  37.6% 17929 3421s

Cutting planes:
  Cover: 6
  MIR: 94
  StrongCG: 18
  GUB cover: 1
  Zero half: 62
  RLT: 629

Explored 16 nodes (450955 simplex iterations) in 3600.03 seconds
Thread count was 1 (of 40 available processors)

Solution count 1: 1140 

Time limit reached
Best objective 1.140000000000e+03, best bound 7.120000000000e+02, gap 37.5439%

User-callback calls 38046, time in user-callback 0.09 sec
